NAME: instance_3132
TYPE: TSP
DIMENSION: 20
EDGE_WEIGHT_TYPE: EUC_2D
NODE_COORD_SECTION
0 54.64 67.10
1 83.49 2.49
2 51.83 76.40
3 0.46 98.57
4 79.08 36.81
5 20.20 14.54
6 10.47 9.72
7 50.90 5.27
8 3.80 65.50
9 72.47 58.96
10 46.93 29.24
11 70.51 85.45
12 85.06 73.03
13 36.16 23.41
14 68.95 33.06
15 29.76 26.49
16 8.15 53.29
17 84.01 94.21
18 38.05 97.11
19 90.85 12.92
EOF
